Version identifier: 22.1.1.0 | 2022-11-28 | 9160aff4d
CPXPARAM_ClockType                               1
CPXPARAM_Read_DataCheck                          1
CPXPARAM_Threads                                 1
CPXPARAM_TimeLimit                               7200
CPXPARAM_MIP_Tolerances_AbsMIPGap                0
CPXPARAM_MIP_Tolerances_MIPGap                   0
CPXPARAM_MIP_Tolerances_Integrality              0
Tried aggregator 2 times.
MIP Presolve eliminated 38321 rows and 2096 columns.
MIP Presolve modified 43843 coefficients.
Aggregator did 20618 substitutions.
Reduced MIP has 331292 rows, 149204 columns, and 1052993 nonzeros.
Reduced MIP has 149204 binaries, 0 generals, 0 SOSs, and 0 indicators.
Presolve time = 2.53 sec. (1334.58 ticks)
Probing fixed 1481 vars, tightened 0 bounds.
Probing time = 3.94 sec. (1321.02 ticks)
Tried aggregator 4 times.
Detecting symmetries...
MIP Presolve eliminated 13606 rows and 4848 columns.
MIP Presolve modified 605 coefficients.
Aggregator did 909 substitutions.
Reduced MIP has 316777 rows, 143447 columns, and 1013854 nonzeros.
Reduced MIP has 143447 binaries, 0 generals, 0 SOSs, and 0 indicators.
Presolve time = 4.83 sec. (2350.14 ticks)
Probing time = 0.13 sec. (38.40 ticks)
Clique table members: 623488.
MIP emphasis: balance optimality and feasibility.
MIP search method: dynamic search.
Parallel mode: none, using 1 thread.
Root relaxation solution time = 4900.49 sec. (822200.48 ticks)

        Nodes                                         Cuts/
   Node  Left     Objective  IInf  Best Integer    Best Bound    ItCnt     Gap

      0     0   158212.6667 59420                 158212.6667   546200         

Clique cuts applied:  4665

Root node processing (before b&c):
  Real time             = 7200.28 sec. (1374912.51 ticks)
Sequential b&c:
  Real time             =    0.00 sec. (0.00 ticks)
                          ------------
Total (root+branch&cut) = 7200.28 sec. (1374912.51 ticks)
Solution is infeasible.

---------------------
@@@ MIP_time_limit_infeasible
Traceback (most recent call last):
  File "/scratch/scherif/DiverseSAT-journal_sup/DiverseSAT_Supplementary_Experiments/experiment-1/cplex/jobs/../solvers/CPLEX-BIN-SE.py", line 134, in <module>
    print(f">>> Benchmark {os.path.basename(cnf_file)} k {k} OPT {int(prob.solution.get_objective_value())}"
  File "/users/scherif/.local/lib/python3.9/site-packages/cplex/_internal/_subinterfaces.py", line 7211, in get_objective_value
    return CPX_PROC.getobjval(self._env._e, self._cplex._lp)
  File "/users/scherif/.local/lib/python3.9/site-packages/cplex/_internal/_procedural.py", line 2055, in getobjval
    check_status(env, status)
  File "/users/scherif/.local/lib/python3.9/site-packages/cplex/_internal/_procedural.py", line 249, in __call__
    raise CplexSolverError(error_string, env, status)
cplex.exceptions.errors.CplexSolverError: CPLEX Error  1217: No solution exists.
